p cnf 15 30
-15 -14 10 0
-15 14 7 0
15 -12 5 0
15 -8 5 0
15 5 -1 0
14 13 8 0
-14 13 -6 0
-14 -12 11 0
14 -10 8 0
14 10 -6 0
-14 -8 -1 0
-14 -6 -3 0
14 4 1 0
13 -11 9 0
-13 8 -1 0
-13 -5 2 0
-12 10 -5 0
11 -8 5 0
-11 3 2 0
-10 8 5 0
10 7 6 0
9 8 -4 0
9 6 4 0
9 -4 2 0
9 -3 2 0
8 -7 4 0
8 -7 2 0
8 5 -1 0
-7 -5 1 0
-6 -4 2 0
